tsp_instances/TSP50/instance45.tsp
NODE_COORD_SECTION
0 0 139
1 137 43
2 122 2
3 175 162
4 4 13
5 44 179
6 87 166
7 5 40
8 115 81
9 71 63
10 107 77
11 188 155
12 43 115
13 58 83
14 88 155
15 93 10
16 75 105
17 196 121
18 8 1
19 41 98
20 71 147
21 189 70
22 142 183
23 28 117
24 96 146
25 103 132
26 61 137
27 52 53
28 110 181
29 57 39
30 159 84
31 158 102
32 92 153
33 104 87
34 136 131
35 151 122
36 196 183
37 158 58
38 106 22
39 70 149
40 61 115
41 77 42
42 72 106
43 113 124
44 43 88
45 65 8
46 170 46
47 117 10
48 67 179
49 112 106
