tsp_instances/TSP50/instance45.opt.tour
TOUR_SECTION
1
6
49
40
21
27
41
43
17
34
11
9
50
44
26
25
33
15
7
29
23
4
37
12
18
36
35
32
31
22
47
38
2
3
48
39
16
46
19
5
8
28
30
42
10
14
45
20
13
24
-1